Al 
 1.0000000000000000
    12.1499999999999986    0.0000000000000000    0.0000000000000000
     0.0000000000000000   12.1499999999999986    0.0000000000000000
     0.0000000000000000    0.0000000000000000   12.1499999999999986
 108
Cartesian
 -0.3984926784947282 -0.4080876824774081 -0.0996224456021563
 -0.6653689390817475  1.5849655387240520  2.0352279022933479
  1.9261401752856739 -0.3119573700015021  1.7634342506597085
  1.5223377564891363  1.9146483447411040 -0.0381360447809373
 -0.3763536807832771 -0.6178271190500971  3.7776697176941818
 -0.2454511793066924  1.2523186947702796  6.2484603455580698
  1.8088992378406334 -0.7918013456911472  5.7590747304236478
  1.6838014516340620  1.3733039486974161  4.0846185629100162
 -0.1265264889844193 -0.7086299216817786  7.7066595567230207
 -0.3890872310316404  1.4045672564077818 10.1351670353566696
  1.3242242688203052 -0.8782202503673112 10.1126268536857076
  1.8009250324574058  1.3913044383156226  8.0797882701456416
 -0.5642239591864580  3.6163969609184523  0.1130729414850877
 -0.3410951782653747  5.5865010056487305  1.9862309848207105
  1.6503901336123312  3.3201621162794099  2.2602109595118920
  1.6215545217983645  5.3082070604255511  0.2115003253367236
 -0.3315525107009654  3.4513727125219971  4.0259702776354329
 -0.3663637753449102  5.3291734691931394  6.1161271218863735
  1.7709725999788002  3.3535996482824211  6.4690824808271383
  1.5190000856594033  5.6621139448107245  4.0552292176230198
 -0.5801129665030997  3.5593132952073874  8.1739808913945815
 -0.0306136884121321  5.3863528222266250 10.2275745862787559
  1.5724534348791055  3.4165137788438713  9.9368908179847182
  1.8917184102152858  5.5670468764132108  8.3096886304849846
 -0.2214801818367055  7.5793952035651371 -0.0593704752511593
 -0.4037338411410762  9.4799024490840420  1.9407658188068160
  1.6139421272506793  7.4080288544538035  1.9161526830122118
  1.8659592179296074  9.5077506115340302  0.0380589903766190
 -0.3805762116686819  7.6696847270553956  3.8766898872080238
 -0.5690264427808625  9.4228527895741134  6.0201661069424501
  1.7197773313579734  7.4924533313934587  5.6500111971944662
  1.7971691900290814  9.5739209713115638  3.4830340060212919
 -0.1503163085686514  7.3466534454254822  8.1103889577941892
 -0.3075596060504178  9.3256654936715968 10.1998212756920115
  1.8541646492449080  7.3375409301841854 10.2797059266893722
  1.6009841103841582  9.2391018712347641  8.2906661364025283
  3.9075328372713032 -0.4208797747715330 -0.0345932871602263
  3.8058006447351613  1.7073563284354834  2.2368050444827730
  5.8336571252443141 -0.6503726718817270  1.9927053073568504
  5.8554536992476178  1.3817266314287675 -0.0196040165630391
  3.7917668880351738 -0.3260130466469122  3.9730486802161442
  3.7854808911941533  1.4472976514948825  6.2045841938379418
  5.6516828950111258 -0.4793355115091124  6.1240104117233551
  5.6509183908063152  1.4619149012980306  4.0972452721120591
  3.6251215696282206 -0.6432577778197982  8.0922836105617506
  3.7282640976932155  1.2766288918425748 10.1625412937002562
  5.7434983569110756 -0.6268722391795163 10.1258525329304856
  5.8767607931138510  1.4715387925454460  8.2637975897876217
  3.5578453317441761  3.3324290637456424  0.0074547206257537
  3.5990340586087917  5.4257942659807288  2.0791757106995328
  5.8652813448640240  3.4532104179929570  2.0300546572705667
  5.6077952435873275  5.5151035444186975  0.1931888297721423
  3.6688363064142244  3.5855491339057517  4.4281563534262478
  3.6850056356974523  5.6293980633161151  6.3169160649001883
  5.8166062607739315  3.5238194371642964  6.1094614928850763
  5.6701288267226833  5.5589107916804039  3.9285043294348236
  3.8278534027674964  3.3989566758859708  8.4538860619033702
  3.7396708775905054  5.3710718380729165 10.3417215138920842
  5.8334051992190368  3.3516765849099039 10.1154840807363016
  5.9430606257919338  5.4799410577781646  8.0798778984128710
  3.8294558006054782  7.3370475035505569  0.0768453725459084
  3.7781239489081693  9.7491985167329478  1.9092771898409857
  5.7190955959187990  7.4264747636943307  2.0431155375979606
  5.7573368585434688  9.4906078668191505 -0.1066631169103435
  3.7929791546897365  7.5381194261628250  4.1091898707631529
  3.7848799068893912  9.3669288336362673  5.8932051619123067
  5.8799555023485226  7.4591413975245864  5.9145851506838989
  5.9683317085306502  9.5204158224854467  4.1734011672100451
  3.8288305901365263  7.6696396764554535  7.8533002107099907
  3.7828416463319621  9.4158021017698914 10.1766028961411621
  5.7559529618711709  7.5793564210471338 10.0621137311768294
  5.5398965290502185  9.4919334596022793  7.9205939644401973
  7.7877708491719124 -0.7461342398029943 -0.2229781048044926
  7.7604780685338222  1.5236733605783406  2.1201208051553628
  9.7488988271245578 -1.1914522696649845  1.5559425821277575
  9.7278567228575685  1.2608951634723486 -0.1290837341391594
  7.9349658772625835 -0.6566912726897948  4.0512355696642874
  7.6210546621510362  1.3662156883575340  6.3877911516440671
  9.8803304767490374 -0.6541115276119849  6.0504411981329698
  9.7583985004742910  1.2138643148365664  4.2684296178134833
  7.8120772135322998 -0.6214654808601844  8.0926581915181490
  7.8225090108988562  1.1709229575207429 10.0580470932047827
  9.9925648216477168 -0.7044267045407560  9.9263167279101143
  9.7988287162757857  1.5115584630203593  8.1454954133717390
  7.7944286662683391  3.4322997704385036  0.0204770800439055
  7.6182028850842611  5.5236427096083611  1.8506398051936708
  9.6795935391895647  3.4584515034582592  1.9522649037629980
  9.8104711266121321  5.5303980479772257 -0.0117800119149536
  7.6869954804206566  3.6025315015866490  4.3254783599265423
  8.0820101913129250  5.7723023743289428  6.0906683725549513
  9.6822797539530399  3.4173126557647491  5.9458240010475611
  9.7698951041663058  5.6527968879047901  3.8986524971523160
  8.0397801018137862  3.5667431551290631  8.1866932150981242
  7.7450059927825787  5.2405752145611348 10.2896605810573103
  9.6571795464213075  3.5202087666402613 10.0797120592750353
  9.8604839555668846  5.6207618844570755  8.0475269800866762
  7.8724753783604084  7.3358559983877205 -0.4151290300825672
  7.5477341591483791  9.2530224332261675  1.8032782974387949
  9.7372960628964460  7.7301975534810765  1.8312802914184205
  9.6959914134865031  9.3545514255376343 -0.3196348190922966
  7.9674819150104383  7.4357663501089464  3.8892034724149354
  7.8554818115629921  9.4035326484421056  6.1324148035808852
  9.8892103039205974  7.6490714873371299  6.1159115101080115
  9.7737365786789177  9.2847377238407169  3.8325230884822417
  7.6129157384979953  7.6275933047392916  8.0304971997300783
  7.6293076752676114  9.6646152815305300  9.9664576498039157
  9.6472424532264309  7.3475606322485527  9.9123516515343120
  9.7936236836964579  9.3480775504159386  8.4265277789663742
