Al 
 1.0000000000000000
    10.9350000000000005    0.0000000000000000    0.0000000000000000
     0.0000000000000000   10.9350000000000005    0.0000000000000000
     0.0000000000000000    0.0000000000000000   10.9350000000000005
 108
Cartesian
  0.5116653742603101 -0.4354098887676809 -0.2370822689585072
  0.4577700905959103  1.4378172638346367  1.7174435924046600
  2.2777598105386994 -0.1780623625921289  1.6668293764788351
  2.2567447257300661  1.2397046787261472 -0.3349835580388334
  0.3829701855969552 -0.4405934826823557  3.3860638536953775
  0.5428247660505233  1.5088137433023971  5.2444224068342820
  2.2324832783001578 -0.4799543106271458  5.0711560072930952
  2.4408250921803250  1.4813342864214569  3.5339045780025380
  0.5924358371879174 -0.3577998912916807  6.9399832497417426
  0.4328783378581914  1.3674341269702452  8.8067503291775999
  2.2387997833205828 -0.4592841234734632  8.7097667166249622
  2.2761909479960143  1.5409976028477439  7.0775872925007430
  0.4887496445211637  3.3321066500103984 -0.2394214666909219
  0.3442583297829752  4.9207377744471534  1.6418120598516759
  2.2169684631880027  3.2627256473372324  1.4493747921466789
  2.3460409270267513  5.2103992807680610 -0.2044758932184039
  0.5860245971055631  3.2236109851046195  3.4177958556841914
  0.3510024975108590  5.0361512612221064  5.1409352260684473
  2.2685960701398442  3.3116722217954777  5.1521915756855758
  2.3403228542174177  5.0688909260204857  3.2611161305331935
  0.4281278837689375  3.2253485552084546  7.0649574610755259
  0.3136593845260141  5.1077873573608024  8.9839259562354794
  2.2126145712743153  3.2694154511868820  8.8502127342909649
  2.0971389821348638  5.1954486569085025  7.0141580377618800
  0.4990221223581480  6.9647433803277528 -0.4088298053979897
  0.3140467122078274  8.6988437458479169  1.5170530273375122
  2.1455392416280725  6.9181230807805338  1.5511307292226422
  2.2290922355844986  8.7965761450089310 -0.1565161940816548
  0.3713006381414800  6.7724544749165814  3.3760163591198533
  0.5334082009522163  8.6552835768600325  5.1833356005633950
  2.4245372901667595  6.8289797001393975  5.0681497132468065
  2.2995929857748858  8.8130520804833168  3.2209611327788594
  0.6202205542399687  6.9339675061907640  6.8929864657760209
  0.2883056660725797  8.7712514371230093  8.6853506828348639
  2.3829296255532171  6.9773802541026777  8.8475898502314418
  2.4046729619219209  8.5821090446331390  6.8688451369988179
  3.9204003640019858 -0.3679704449405874 -0.3653652560277049
  4.1850905164017993  1.4446869917973462  1.3670520619896955
  6.0277281992013201 -0.3764660162791882  1.4526618659059602
  5.9972724376786974  1.2647792194885559 -0.3955270258580988
  4.0886416002058166 -0.4156856214367362  3.3361286397484839
  3.9756532906180291  1.5511158734441413  5.2566264468927688
  5.8733394732711179 -0.2983505032030386  5.1222483251370079
  5.7830362470760370  1.3343201133627809  3.3250406120714970
  4.0447966868487688 -0.2987164782839528  6.9089275215290114
  4.1282340446307311  1.3773686553551534  8.7780580911595116
  5.9289024282574436 -0.3806854710371093  8.8962746954610701
  5.9010479629842383  1.3891754733101049  6.9925271598362384
  3.9973954141515713  3.1580229084551452 -0.3580191292180370
  4.1888699053574241  5.0549867523184746  1.5780347067093152
  5.9392496431143664  3.1955496013832523  1.3752910365246054
  6.0010307104733158  5.0863183962307712 -0.2972481633526104
  4.1359033553910907  3.3260532696484955  3.3948303097866082
  4.1190843946141138  5.0957934230829762  5.2256477822268339
  6.0148164540562572  3.2956786698206435  5.2470588184174689
  5.9000697259852917  5.2471579643230513  3.4904106204195799
  4.2353823850502224  3.2375925553382210  7.0693826433263993
  4.1618482931854510  5.0889831097895293  8.8952612019962878
  5.8048493173170481  3.3074570624714235  8.8600839586634841
  5.9546739819433734  5.1128949661440029  7.0869537051673515
  4.2619674605239970  7.0691633516215848 -0.2082247595792321
  4.0755020194957634  8.8738903437301548  1.6495556223504222
  5.9580140086983606  7.0981535708332277  1.4930056394766797
  5.8311290616317200  8.9103190971200092 -0.1476308546589315
  3.9996728486227648  6.9211087853996949  3.2709413887882310
  4.1518698933091622  8.7134510421478364  5.2816651484433859
  5.7864040807620896  6.9011247334160313  5.1051698111354469
  5.9300547303526834  8.7310589278929776  3.5035866303264647
  4.1520023113830797  6.8904324194300521  6.9358060401148975
  4.1243574955416271  8.7390592925771919  8.7321791979234558
  5.9801189807397357  6.9508834175514114  8.7796577043425188
  6.0514603089769103  8.7535417581309520  7.1085308959540976
  7.9319548861678157 -0.5122506811670370 -0.2211318223502409
  7.6550688773115683  1.2726009262619580  1.6302997214424513
  9.7287533993443667 -0.3067525732592149  1.6492964742050915
  9.7232283497735121  1.4707929275798517 -0.2584602335822021
  7.6541822893416986 -0.2449111433654152  3.3401207309945939
  7.9004402847878099  1.4347335402516854  5.2609049308827078
  9.5353517302639350 -0.5374694588313710  5.1932024903230420
  9.6257926791811830  1.3847006590940141  3.3768067464501876
  7.6114080266486299 -0.3830099986976242  6.9610227116261063
  7.7679321338487650  1.3660095534418297  8.6589387192855263
  9.5297482273082856 -0.3500519172673996  8.7857610956593568
  9.6365022894815020  1.2200884447881231  6.9328265801341828
  7.8212812640740257  3.0345865117852524 -0.3273033623668054
  7.6623436660500044  5.1978787310119889  1.6082876651637110
  9.5073734122349371  3.2058290506481479  1.6616764096763403
  9.3407511220822208  5.0857112348143847 -0.1869436429475538
  7.4894626966326623  3.1214699972642888  3.3892445124540607
  7.6766788740091210  5.1334807385043852  5.0935671106962932
  9.6815636661621784  3.3067442221911865  5.2280606406204013
  9.3404495550077868  5.0963181162787494  3.3498954605604281
  7.7151333483241560  3.3786347438001378  6.9380390771802594
  7.7247040620218206  5.0040488233751441  8.8513466482837284
  9.4582744417312608  3.1450246311401138  8.8204376393464976
  9.6227423250978639  5.1827566422682878  6.9256435215686540
  7.6407471684725543  7.0375555395706426 -0.2809100964487464
  7.9327114214270420  8.7829481287910269  1.6184918879265104
  9.5114311351636811  6.9640447491816087  1.5958315690129643
  9.5411066266106186  8.7835232340868270 -0.4458024423473934
  7.8019268483234221  7.0090124330591825  3.3146580481266641
  7.7013245351694550  8.8141993527986831  5.2315456782730978
  9.4821249292569654  7.0353871120314899  5.1286308302500236
  9.6376936337665331  8.7444438203689003  3.5158992260053648
  7.7166536900218761  6.9454483091836687  6.9152961968910311
  7.8311978276863039  8.9135791938861573  8.7707218393242758
  9.4393937760656978  6.8491959701270684  8.9605345587457013
  9.4959956088586939  8.6317398536616814  6.9956476033603332
