Al 
 1.0000000000000000
    13.3650000000000002    0.0000000000000000    0.0000000000000000
     0.0000000000000000   13.3650000000000002    0.0000000000000000
     0.0000000000000000    0.0000000000000000   13.3650000000000002
 108
Cartesian
 -0.6437669336629165 -0.2523542991254073  1.3445769528730835
  0.5094020316928803  2.5084173671612842  2.3170713159279193
  1.6001256759876363 -0.2355140222519795  2.8909749976932151
  0.5338387302739389  1.0710925366020714 -0.6089206311662726
 -0.6320195008042417  0.6643193391971500  4.2866247046138248
  1.0604523214196750  2.2923377580070428  5.4333667910673915
  1.8449744941255872 -0.0374050260683058  6.8883579630556468
  3.2217783611837199  2.3916378056257730  3.4781038114817582
 -0.1765654044114409 -0.5424011153740174  9.0721733495581489
  1.7015147853571262  2.8012535528910560 10.6150453017960533
  3.5571309967559817  0.9309332650182435 10.6982575194539358
  2.4461650125983003  2.1132518909309566  8.0426707466731688
  0.5443709754453968  3.9471393059917559 -0.4689654968319865
 -0.5983918334105526  6.9685877465432853  1.6657513911758075
  1.5344396356479166  5.0695602726393281  1.9401922949492532
  1.6783301117051836  7.8662938251230763  0.8937291459360081
 -0.7018167461696284  4.9295371473014953  3.9133732487096768
  0.6344587925209096  6.7122994175895121  6.2684865276164983
  2.5457780701487596  4.8032098336572240  4.6711397892891364
  1.9595139772676882  7.2875956663108630  3.5729876206753239
  1.1534346921697045  4.5610839499918709  8.1693561112017328
  0.8836214055996796  6.6054020426329272 11.6183266265027552
  3.1580776575654523  5.2971120026848304 10.0980571750996724
  2.5317799927867370  7.6647493445495876  9.1598528743596521
 -0.0184747497346189 10.2185935971239026  0.9249256926164872
 -1.1500258127784242 11.5312535008731309  3.2846452353851801
  2.0301712808779317 10.2379695877002508  2.6769176468177864
  2.2257210250741291 12.1432551117297685 -0.0522926324246031
 -0.0609899061578923  9.2661456976771746  4.5777527937944411
 -0.6157217420692556 11.5463527442360370  6.7819410634111907
  2.2331360007825878  9.3900446678477980  6.5755744140148096
  1.2318012159389109 11.6923078499690902  5.0577857938828839
  0.2168416836422911  9.2734895974813352  9.8101919918316494
  0.2268318013241470 11.5161950185870285 11.4145313016012455
  2.0170805072208977  9.7207495857124258 12.0878278451613070
  2.7235046224495010 11.6952847454628355  8.9756246806167113
  4.3996070442975554  0.6213369889865756  1.2491264446791612
  2.8208165286741202  2.8680572173707324  0.8333178187272322
  7.1259919134964411 -0.1981687175033676  1.7885215079861334
  6.8177306602337051  2.3738592959341549  0.3283513189253898
  3.8371055696570617 -0.3567954313453877  4.2584688640219310
  4.2854434776072869  2.0683511816222580  5.9907916568714210
  7.5659059425522459  0.0218041807594700  6.5071548389354836
  5.8254673337945810  2.1369242395457064  3.1290997146163964
  4.7836645773382305  0.9769604642004327  8.1909262968311296
  4.6553747548428923  3.3494024735309207 12.1863528417767490
  5.9172118995698675  0.0530796337505316 12.0484276710671789
  7.4445634128190505  1.4853568388055294  9.7849943074157686
  3.2484309626740897  5.6365061242977097 -0.2875661091657268
  4.2993810802434673  5.8037536211530059  2.4496502123798467
  7.1280345057965704  4.8527797489286844  2.5551994167874290
  6.6746729372767533  7.0697164792116807  0.3027731243187788
  5.1974440941101472  4.2413355679598723  4.2374628371016856
  3.3865313041492162  7.1303045152846432  6.1907685870503517
  6.3859532315136347  3.5492619676057746  8.0576220943154286
  6.3421821771467517  6.0212359728416951  6.2644856761008807
  4.0475207293058961  4.5758793739665498  7.2651933526640997
  4.2862682706297051  8.1985357977631459 11.3528378489065336
  6.5594215793398227  4.8854695432816921 10.7641119818568960
  5.2825519185517651  6.4542715544671561  8.6276399857637998
  4.3765214101284897  8.8012588136612759  0.9058507691861890
  4.4074929344656022 11.4846599157497700  1.5910575036009964
  6.3930356337697862  8.6855706261626473  2.6615154735807969
  6.7163224080609583 10.3082014238857838  0.3721511434986556
  4.2022308859669018  8.5424305655786483  4.0216642719445757
  4.2227425722541518 12.0222163686470296  6.6599835991324596
  7.1229907518478335  9.4946872720194637  7.7371015632055160
  5.9136097180362581 11.4616042268114278  4.0925147110564870
  4.5427479194881650  9.7906448166138258  8.6097984034728441
  4.3146153046112401 11.1942337227931503 11.4725793446603817
  6.7927832988451371  8.8882722979213415 10.4957178490787992
  6.9408186995700865 11.9859553609533460  9.0852863030765612
  9.9451541880676793 -0.4418183472755930  0.1065593443983846
  8.2470669533973151  1.2679441919805330  3.8006753791250540
 10.5658558581884048  0.7214651319282654  2.6052117316200754
 11.1145712829870007  2.1876177508195203  0.6647269448601372
 10.2329917986425993 -0.5274438794871142  5.6038510580803464
  9.2517615929950168  2.0198103124255020  7.4396686236210705
 11.9681424287594140  1.2180885154314014  7.0110818346388415
 10.9744348660035325  3.6539709068248287  5.7597552141977610
 10.0967761784966257 -0.1949497996595409  8.8836137435268459
  9.6121855926291069  2.0393824686879563 11.6132399431557118
 11.6067476382851371 -0.1919945499759189 11.2621958011534193
 11.9946409764587152  2.4472795464828248  9.8923019512409667
  8.8040922482213162  3.9955838005644302  0.2474216144918100
  8.8311087887734008  5.8428470152888901  4.4644943443288030
  9.9035135735202005  3.4040033029620980  2.8152874175988174
 10.2899700770616960  6.4864982296176983  0.4084821127751260
  7.8737777862745588  3.3445108802574968  5.5303278960461393
  9.3357929803621023  5.7468181329200974  7.4778725248628000
 12.2461748469671612  5.2338862489939562  9.6578389037591528
 11.0525912326900819  6.9277186261277759  5.2087768539601882
  9.2826909832819577  3.6732757542032419  9.6020977073298770
  8.8565188947908879  5.8557764922734536 11.0970522042418018
 11.1839657265439278  4.2862151595607658 11.9806554635224014
 11.4797928273394376  7.4448152495372479 11.0509300534476278
  8.9365452842418165  8.8021763298744879  1.4914022723621907
  9.5476699004588639 11.5014125779583161  3.1548403310448818
 11.1867742450836491  8.9919270792784491  2.4231745150035833
 10.9446330628628008 10.6146185069579158 -0.2054499025699141
  8.1480456320828285  8.2529701000795743  4.7739627513662475
  9.9335147508564674 10.7442045260649053  8.0028463614832948
 12.1170062180239828  8.5157175410766062  7.4510510168774262
 10.7972767924701785  9.9414653255926684  5.5012356866811531
  9.2330386776205362  7.9063637600292571  9.3061963207989802
  9.0333055489280643 11.8886008524902707 11.3778969262848033
  8.9603744420609619  8.6308303810971232 12.0584843632402574
 10.7425482098527780 10.0633510675694868 10.4821951323376119
